(set-option :auto-config false)
(set-option :produce-unsat-cores false)
(set-option :smt.mbqi.max_iterations 10000000)
(set-option :smt.relevancy 0)
(declare-fun c0 () Bool)
(declare-fun c1 () Bool)
(define-fun e2 () Bool (and c0 c1))
(define-fun e3 () Bool (not e2))
(define-fun e4 () Bool (not c1))
(declare-fun c5 () (_ BitVec 64))
(declare-fun c6 () (_ BitVec 64))
(define-fun e7 () Bool (= c5 c6))
(define-fun e8 () Bool (not e7))
(define-fun e9 () (_ BitVec 64) (_ bv1024 64))
(define-fun e10 () Bool (bvult c5 e9))
(define-fun e11 () Bool (bvult c6 e9))
(define-fun e12 () Bool (and e10 e11))
(define-fun e13 () (_ BitVec 64) (_ bv0 64))
(declare-fun c14 ((_ BitVec 64)) (_ BitVec 64))
(define-fun e15 () (_ BitVec 64) (c14 c5))
(define-fun e16 () Bool (= e13 e15))
(define-fun e17 () Bool (and e10 e16))
(define-fun e18 () (_ BitVec 64) (c14 c6))
(define-fun e19 () Bool (= e13 e18))
(define-fun e20 () Bool (and e11 e19))
(define-fun e21 () Bool (and e4 e8 e12 e17 e20))
(define-fun e22 () Bool (not e12))
(define-fun e23 () Bool (and e17 e20))
(define-fun e24 () Bool (not e23))
(define-fun e25 () Bool (and e12 e24))
(define-fun e26 () Bool (or e22 e25))
(define-fun e27 () Bool (and e8 e26))
(define-fun e28 () Bool (or e7 e27))
(define-fun e29 () Bool (and e4 e28))
(define-fun e30 () Bool (or c1 e29))
(define-fun e31 () Bool (or e21 e30))
(define-fun e32 () Bool (or e31 e3))
(define-fun e33 () Bool (not e21))
(define-fun e34 () Bool (or e33 e3))
(define-fun e35 () Bool (and e32 e34))
(define-fun e36 () Bool (or e3 e35))
(define-fun e37 () Bool (not e36))
(assert e37)
(check-sat)
